120
150
98
99
52
91
38
50
79
36
35
79
45
56
94
38
70
42
26
45
99
21
56
80
93
65
60
80
62
58
50
86
64
31
42
26
91
59
53
77
64
86
29
91
31
49
99
70
50
30
25
20
69
30
94
56
50
85
72
50
65
68
82
70
38
82
38
99
50
59
61
42
83
31
36
53
32
70
50
75
75
93
26
86
62
38
39
72
77
24
30
82
31
64
86
50
99
36
75
75
85
62
81
86
99
27
29
50
93
95
57
79
35
85
35
55
42
36
86
64
35
30
